100 8
710 433
463 634
233 886
182 856
732 718
92 807
458 333
702 495
434 578
205 378
454 795
179 723
136 149
331 818
191 175
517 476
517 809
856 403
352 951
389 789
200 155
705 518
168 352
205 669
678 451
329 872
481 492
606 439
215 721
143 932
499 288
343 715
505 559
388 862
305 231
529 898
695 723
687 248
470 909
693 244
559 573
211 417
249 80
495 878
228 371
433 789
331 731
178 754
923 413
256 751
724 681
135 212
596 334
522 850
375 574
492 581
688 196
317 625
451 539
455 812
351 773
863 166
676 348
634 595
593 574
363 823
807 677
304 281
616 579
81 289
785 766
593 273
519 303
171 243
340 861
531 595
874 453
569 339
321 756
498 172
189 810
197 755
406 966
604 616
851 288
880 664
399 893
786 489
212 245
490 768
787 464
526 489
392 847
156 706
260 288
293 310
403 933
691 504
552 453
589 249
